************************************************************************
file with basedata            : md377_.bas
initial value random generator: 710992064
************************************************************************
projects                      :  1
jobs (incl. supersource/sink ):  22
horizon                       :  154
RESOURCES
  - renewable                 :  2   R
  - nonrenewable              :  2   N
  - doubly constrained        :  0   D
************************************************************************
PROJECT INFORMATION:
pronr.  #jobs rel.date duedate tardcost  MPM-Time
    1     20      0       19       11       19
************************************************************************
PRECEDENCE RELATIONS:
jobnr.    #modes  #successors   successors
   1        1          3           2   3   4
   2        3          3           5   6  11
   3        3          2          13  19
   4        3          2           8  16
   5        3          1          15
   6        3          2           7   9
   7        3          3           8  12  14
   8        3          2          13  20
   9        3          1          10
  10        3          3          12  15  16
  11        3          3          12  13  17
  12        3          2          18  20
  13        3          2          15  18
  14        3          3          17  18  19
  15        3          1          21
  16        3          1          19
  17        3          2          20  21
  18        3          1          21
  19        3          1          22
  20        3          1          22
  21        3          1          22
  22        1          0        
************************************************************************
REQUESTS/DURATIONS:
jobnr. mode duration  R 1  R 2  N 1  N 2
------------------------------------------------------------------------
  1      1     0       0    0    0    0
  2      1     3       5    0    6    5
         2     3       0    6    5    4
         3     7       0    5    3    4
  3      1     3       8    0    7    2
         2     5       0    5    6    2
         3     6       7    0    6    2
  4      1     4       0   10    4    9
         2     8       7    0    4    7
         3     9       0    9    2    6
  5      1     3       1    0    3   10
         2     5       0    5    2    8
         3     7       0    2    2    6
  6      1     2       3    0    9   10
         2     9       0    6    9    7
         3    10       2    0    8    6
  7      1     1       9    0    6    9
         2     4       0    5    5    5
         3     7       8    0    5    3
  8      1     5       0    7    6    6
         2     6       8    0    5    6
         3     7       6    0    1    6
  9      1     2       5    0    6    8
         2     7       0    8    3    7
         3    10       0    5    1    5
 10      1     2       8    0    8   10
         2     6       0    4    6    8
         3    10       0    4    4    6
 11      1     1       6    0    8   10
         2     2       6    0    5    9
         3    10       0    8    2    6
 12      1     1       5    0    7    9
         2     2       4    0    7    9
         3     4       3    0    7    7
 13      1     4       0    3    7    5
         2     7       8    0    6    3
         3     8       5    0    5    2
 14      1     1       0    9    8    4
         2     4       0    7    8    3
         3    10       0    5    5    2
 15      1     3       3    0    6    9
         2     3       0    6    7    8
         3     4       0    2    5    8
 16      1     4       0    2   10   10
         2     7       7    0    5   10
         3     9       5    0    2   10
 17      1     3       1    0    3    5
         2     3       6    0    3    3
         3     3       4    0    5    4
 18      1     1       0   10   10    5
         2     2       0    9    9    5
         3     7       0    9    8    5
 19      1     6       6    0   10    9
         2     7       5    0   10    9
         3    10       0    8    9    6
 20      1     2       0    9    3    5
         2     4       7    0    3    5
         3    10       6    0    2    5
 21      1     1       7    0    9    8
         2     3       5    0    8    7
         3     6       4    0    8    5
 22      1     0       0    0    0    0
************************************************************************
RESOURCEAVAILABILITIES:
  R 1  R 2  N 1  N 2
   10   15  139  148
************************************************************************
MAXIMAL LAGS:
from  to  type  delay
    1   22   ES      0
    1    2   ES      0
    2   22   ES      0
    1    3   ES      0
    3   22   ES      0
    1    4   ES      0
    4   22   ES      0
    1    5   ES      0
    5   22   ES      0
    1    6   ES      0
    6   22   ES      0
    1    7   ES      0
    7   22   ES      0
    1    8   ES      0
    8   22   ES      0
    1    9   ES      0
    9   22   ES      0
    1   10   ES      0
   10   22   ES      0
    1   11   ES      0
   11   22   ES      0
    1   12   ES      0
   12   22   ES      0
    1   13   ES      0
   13   22   ES      0
    1   14   ES      0
   14   22   ES      0
    1   15   ES      0
   15   22   ES      0
    1   16   ES      0
   16   22   ES      0
    1   17   ES      0
   17   22   ES      0
    1   18   ES      0
   18   22   ES      0
    1   19   ES      0
   19   22   ES      0
    1   20   ES      0
   20   22   ES      0
    1   21   ES      0
   21   22   ES      0
    1   22   ES      0
    2    5   SS      4
    2    5   SE    -11
    2    5   ES      2
    2    5   EE    -10
    2    6   SS      5
    2    6   SE      9
    6    2   SE      0
    2    6   ES      0
    2    6   EE    -11
    2   11   SS     11
    2   11   SE      1
    2   11   ES      6
    2   11   EE      6
    3   13   SS      8
    3   13   SE     -6
    3   13   ES      7
    3   13   EE      7
    3   19   SS     -4
    3   19   SE     -2
    3   19   ES    -10
    3   19   EE    -11
    4    8   SS      0
    4    8   SE      9
    4    8   ES      4
    4    8   EE     -6
    4   16   SS      4
    4   16   SE     11
    4   16   ES     -8
    4   16   EE      7
    5   15   SS     -8
    5   15   SE    -10
    5   15   ES      0
    5   15   EE     -8
    6    7   SS      6
    6    7   SE      4
    6    7   ES     11
    6    7   EE      0
    6    9   SS    -12
    6    9   SE     -3
    6    9   ES     10
    6    9   EE     -7
    7    8   SS      3
    7    8   SE      4
    7    8   ES     -1
    7    8   EE     10
    7   12   SS      3
    7   12   SE     -9
    7   12   ES     12
    7   12   EE    -11
    7   14   SS     -5
    7   14   SE      1
    7   14   ES      8
    7   14   EE     -6
    8   13   SS      8
    8   13   SE    -12
    8   13   ES     -1
    8   13   EE      0
    8   20   SS      7
    8   20   SE     -2
    8   20   ES      8
    8   20   EE      8
    9   10   SS     12
    9   10   SE      1
    9   10   ES     -7
    9   10   EE     -2
   10   12   SS      8
   10   12   SE    -11
   10   12   ES      9
   10   12   EE      6
   10   15   SS      0
   10   15   SE      7
   10   15   ES     -3
   10   15   EE    -10
   10   16   SS     -8
   10   16   SE     -6
   10   16   ES     -2
   10   16   EE     -7
   11   12   SS      5
   11   12   SE      4
   11   12   ES      5
   11   12   EE      7
   11   13   SS      6
   11   13   SE      9
   11   13   ES    -12
   11   13   EE      9
   11   17   SS      5
   11   17   SE      4
   11   17   ES     12
   11   17   EE     12
   12   18   SS      4
   12   18   SE      0
   12   18   ES     12
   12   18   EE    -12
   12   20   SS      4
   12   20   SE    -10
   12   20   ES    -10
   12   20   EE    -12
   13   15   SS      2
   13   15   SE     -9
   13   15   ES     -3
   13   15   EE      7
   13   18   SS     11
   13   18   SE     -7
   13   18   ES     -6
   13   18   EE     10
   14   17   SS      0
   14   17   SE    -12
   14   17   ES     -5
   14   17   EE     12
   14   18   SS      1
   14   18   SE      4
   14   18   ES    -12
   14   18   EE      4
   14   19   SS      8
   14   19   SE     -2
   14   19   ES      5
   14   19   EE      9
   15   21   SS      4
   15   21   SE     -3
   15   21   ES     -4
   15   21   EE     12
   16   19   SS     -4
   16   19   SE     -6
   16   19   ES      3
   16   19   EE     -8
   17   20   SS     12
   17   20   SE     -9
   17   20   ES     -6
   17   20   EE     -7
   17   21   SS      1
   17   21   SE     10
   17   21   ES     10
   17   21   EE      3
   18   21   SS      3
   18   21   SE      1
   18   21   ES     -6
   18   21   EE      5
************************************************************************
